

******************************************************************************
This program contains Ipopt, a library for large-scale nonlinear optimization.
 Ipopt is released as open source code under the Eclipse Public License (EPL).
         For more information visit http://projects.coin-or.org/Ipopt
******************************************************************************

This is Ipopt version 3.12.8, running with linear solver mumps.
NOTE: Other linear solvers might be more efficient (see Ipopt documentation).

Number of nonzeros in equality constraint Jacobian...:        0
Number of nonzeros in inequality constraint Jacobian.:        2
Number of nonzeros in Lagrangian Hessian.............:        3

Total number of variables............................:        2
                     variables with only lower bounds:        1
                variables with lower and upper bounds:        0
                     variables with only upper bounds:        0
Total number of equality constraints.................:        0
Total number of inequality constraints...............:        1
        inequality constraints with only lower bounds:        0
   inequality constraints with lower and upper bounds:        0
        inequality constraints with only upper bounds:        1

iter    objective    inf_pr   inf_du lg(mu)  ||d||  lg(rg) alpha_du alpha_pr  ls
   0  9.9916352e-01 0.00e+00 1.22e+00  -1.0 0.00e+00    -  0.00e+00 0.00e+00   0
   1  1.9870584e-01 0.00e+00 1.44e-05  -1.0 4.82e-01    -  1.00e+00 1.00e+00f  1
   2  6.7783061e-02 0.00e+00 2.00e-07  -1.7 4.78e-01    -  1.00e+00 1.00e+00f  1
   3  4.6679878e-02 0.00e+00 2.83e-08  -2.5 5.57e-02    -  1.00e+00 1.00e+00f  1
   4  3.6081289e-02 0.00e+00 2.99e-03  -3.8 5.34e-02    -  9.48e-01 1.00e+00f  1
   5  3.4035027e-02 0.00e+00 1.50e-09  -3.8 1.28e-02    -  1.00e+00 1.00e+00f  1
   6  3.3790410e-02 0.00e+00 1.84e-11  -5.7 1.38e-03    -  1.00e+00 1.00e+00f  1
   7  3.3786988e-02 0.00e+00 2.50e-14  -8.6 1.99e-05    -  1.00e+00 1.00e+00f  1

Number of Iterations....: 7

                                   (scaled)                 (unscaled)
Objective...............:   3.3786988245532661e-02    3.3786988245532661e-02
Dual infeasibility......:   2.5035529205297280e-14    2.5035529205297280e-14
Constraint violation....:   0.0000000000000000e+00    0.0000000000000000e+00
Complementarity.........:   2.7964418540363999e-09    2.7964418540363999e-09
Overall NLP error.......:   2.7964418540363999e-09    2.7964418540363999e-09


Number of objective function evaluations             = 8
Number of objective gradient evaluations             = 8
Number of equality constraint evaluations            = 0
Number of inequality constraint evaluations          = 8
Number of equality constraint Jacobian evaluations   = 0
Number of inequality constraint Jacobian evaluations = 8
Number of Lagrangian Hessian evaluations             = 7
Total CPU secs in IPOPT (w/o function evaluations)   =      0.002
Total CPU secs in NLP function evaluations           =      0.000

EXIT: Optimal Solution Found.
 
Ipopt 3.12.8: Optimal Solution Found
